SCIP Status        : solving was interrupted [time limit reached]
Total Time         :    3600.01
  solving          :    3600.00
  presolving       :       0.50 (included in solving)
  reading          :       0.01
  copying          :       2.07 (48 #copies) (minimal 0.00, maximal 0.11, average 0.04)
Original Problem   :
  Problem name     : bbbenchmark/pw05_100.1.cut
  Variables        : 101 (100 binary, 0 integer, 0 implicit integer, 1 continuous)
  Constraints      : 1 initial, 1 maximal
  Objective        : minimize, 1 non-zeros (abs.min = 1, abs.max = 1)
Presolved Problem  :
  Problem name     : t_bbbenchmark/pw05_100.1.cut
  Variables        : 1757 (100 binary, 0 integer, 1640 implicit integer, 17 continuous)
  Constraints      : 1689 initial, 11692 maximal
  Objective        : minimize, 1 non-zeros (abs.min = 1, abs.max = 1)
  Nonzeros         : 8427 constraint, 202 clique table
Presolvers         :   ExecTime  SetupTime  Calls  FixedVars   AggrVars   ChgTypes  ChgBounds   AddHoles    DelCons    AddCons   ChgSides   ChgCoefs
  boundshift       :       0.00       0.00      0          0          0          0          0          0          0          0          0          0
  convertinttobin  :       0.00       0.00      0          0          0          0          0          0          0          0          0          0
  domcol           :       0.00       0.00      1          0          0          0          0          0          0          0          0          0
  dualagg          :       0.00       0.00      0          0          0          0          0          0          0          0          0          0
  dualcomp         :       0.00       0.00      1          0          0          0          0          0          0          0          0          0
  dualinfer        :       0.00       0.00      0          0          0          0          0          0          0          0          0          0
  dualsparsify     :       0.00       0.00      1          0          0          0          0          0          0          0          0          0
  gateextraction   :       0.00       0.00      0          0          0          0          0          0          0          0          0          0
  implics          :       0.00       0.00      2          0          0          0          0          0          0          0          0          0
  inttobinary      :       0.00       0.00      0          0          0          0          0          0          0          0          0          0
  qpkktref         :       0.00       0.00      0          0          0          0          0          0          0          0          0          0
  redvub           :       0.00       0.00      0          0          0          0          0          0          0          0          0          0
  sparsify         :       0.00       0.00      1          0          0          0          0          0          0          0          0          0
  stuffing         :       0.00       0.00      0          0          0          0          0          0          0          0          0          0
  trivial          :       0.00       0.00      4          0          0          0          0          0          0          0          0          0
  tworowbnd        :       0.00       0.00      0          0          0          0          0          0          0          0          0          0
  dualfix          :       0.00       0.00      4          0          0          0          0          0          0          0          0          0
  genvbounds       :       0.00       0.00      0          0          0          0          0          0          0          0          0          0
  probing          :       0.29       0.00      1          0          0          0          0          0          0          0          0          0
  pseudoobj        :       0.00       0.00      1          0          0          0          1          0          0          0          0          0
  symmetry         :       0.00       0.00      0          0          0          0          0          0          0          0          0          0
  vbounds          :       0.00       0.00      1          0          0          0          0          0          0          0          0          0
  varbound         :       0.00       0.00      2          0          0          0          0          0          0          0          0          0
  and              :       0.00       0.00      2          0          0          0          0          0          0          0          0          0
  linear           :       0.01       0.00      2          0          0          0          0          0          0          0          0          0
  logicor          :       0.00       0.00      0          0          0          0          0          0          0          0          0          0
  bounddisjunction :       0.00       0.00      0          0          0          0          0          0          0          0          0          0
  nonlinear        :       0.17       0.00      5          0          0          0          1          0          0       1688          0          0
  benders          :       0.00       0.00      0          0          0          0          0          0          0          0          0          0
  components       :       0.01       0.00      1          0          0          0          0          0          0          0          0          0
  root node        :          -          -      -          0          -          -         14          -          -          -          -          -
Constraints        :     Number  MaxNumber  #Separate #Propagate    #EnfoLP    #EnfoRelax  #EnfoPS    #Check   #ResProp    Cutoffs    DomReds       Cuts    Applied      Conss   Children
  benderslp        :          0          0          0          0      97799          0          0      10926          0          0          0          0          0          0          0
  integral         :          0          0          0          0      97799          0          0      10926          0          0        165          0          0         23     195394
  varbound         :         16         16         46     631496          0          0          0         54          0          0      71661          0          0          0          0
  and              :       1640       1640     120603     693461          5          0          0         46     445696          0     652596      10381       9188          0          0
  linear           :         33+        42         46     693503          5          0          0         44        362          7     355016          0          0          0          0
  logicor          :          0+      9966          0     105742          0          0          0          0         17        264        110          0          0          0          0
  bounddisjunction :          0+       224          0      50611          0          0          0          0          1          6          3          0          0          0          0
  benders          :          0          0          0          0          5          0          0         27          0          0          0          0          0          0          0
  countsols        :          0          0          0          0          5          0          0         27          0          0          0          0          0          0          0
  components       :          0          0          0          0          0          0          0          0          0          0          0          0          0          0          0
Constraint Timings :  TotalTime  SetupTime   Separate  Propagate     EnfoLP     EnfoPS     EnfoRelax   Check    ResProp    SB-Prop
  benderslp        :       0.15       0.00       0.00       0.00       0.14       0.00       0.00       0.01       0.00       0.00
  integral         :      45.03       0.00       0.00       0.00      45.03       0.00       0.00       0.00       0.00       0.00
  varbound         :       1.14       0.00       0.00       1.13       0.00       0.00       0.00       0.00       0.00       0.01
  and              :      82.67       0.00      60.52      21.58       0.00       0.00       0.00       0.00       0.20       0.37
  linear           :       3.81       0.00       0.03       3.73       0.00       0.00       0.00       0.00       0.00       0.05
  logicor          :       9.75       0.00       0.00       9.74       0.00       0.00       0.00       0.00       0.00       0.01
  bounddisjunction :       0.65       0.00       0.00       0.65       0.00       0.00       0.00       0.00       0.00       0.00
  benders          :       0.00       0.00       0.00       0.00       0.00       0.00       0.00       0.00       0.00       0.00
  countsols        :       0.00       0.00       0.00       0.00       0.00       0.00       0.00       0.00       0.00       0.00
  components       :       0.20       0.00       0.00       0.20       0.00       0.00       0.00       0.00       0.00       0.00
Propagators        : #Propagate   #ResProp    Cutoffs    DomReds
  dualfix          :          4          0          0          0
  genvbounds       :          0          0          0          0
  nlobbt           :          0          0          0          0
  obbt             :          0          0          0          0
  probing          :          0          0          0          0
  pseudoobj        :     433366          0          0         15
  redcost          :     231157          0          0      91167
  rootredcost      :         14          0          0          0
  symmetry         :          0          0          0          0
  vbounds          :     118514          0          0          0
Propagator Timings :  TotalTime  SetupTime   Presolve  Propagate    ResProp    SB-Prop
  dualfix          :       0.00       0.00       0.00       0.00       0.00       0.00
  genvbounds       :       0.36       0.00       0.00       0.36       0.00       0.00
  nlobbt           :       0.00       0.00       0.00       0.00       0.00       0.00
  obbt             :       0.00       0.00       0.00       0.00       0.00       0.00
  probing          :       0.29       0.00       0.29       0.00       0.00       0.00
  pseudoobj        :       0.83       0.00       0.00       0.83       0.00       0.00
  redcost          :      11.94       0.00       0.00      11.94       0.00       0.00
  rootredcost      :       0.59       0.00       0.00       0.59       0.00       0.00
  symmetry         :       0.23       0.00       0.00       0.23       0.00       0.00
  vbounds          :       0.50       0.00       0.00       0.49       0.00       0.01
Conflict Analysis  :       Time      Calls    Success    DomReds  Conflicts   Literals    Reconvs ReconvLits   Dualrays   Nonzeros   LP Iters   (pool size: [10000,10000])
  propagation      :       0.00        271        211          -        257       60.5          0        0.0          -          -          -
  infeasible LP    :       0.02         16         16          -        671      142.1          0        0.0         62      125.5          0
  bound exceed. LP :      17.20       5145       4827          -     127442      105.7          0        0.0          0        0.0      56803
  strong branching :       0.00          0          0          -          0        0.0          0        0.0          -          -          0
  pseudo solution  :       0.00          0          0          -          0        0.0          0        0.0          -          -          -
  applied globally :       0.45          -          -          0      28093      116.6          -          -         62          -          -
  applied locally  :          -          -          -          0          0        0.0          -          -          0          -          -
Separators         :   ExecTime  SetupTime      Calls  RootCalls    Cutoffs    DomReds  FoundCuts ViaPoolAdd  DirectAdd    Applied ViaPoolApp  DirectApp      Conss
  cut pool         :       6.27          -      31229         68          -          -      49336    1471585          -          -          -          -          -    (maximal pool size:       3888)
  aggregation      :     453.95       0.00      11157         46          0          0       1150       2104          0        708        708          0          0
  > cmir           :          -          -          -          -          -          -          -       2009          0        663        663          0          -
  > flowcover      :          -          -          -          -          -          -          -         95          0         45         45          0          -
  > knapsackcover  :          -          -          -          -          -          -          -          0          0          0          0          0          -
  cgmip            :       0.00       0.00          0          0          0          0          0          0          0          0          0          0          0
  clique           :       0.00       0.00         46         46          0          0          0          0          0          0          0          0          0
  closecuts        :       0.00       0.00          0          0          0          0          0          0          0          0          0          0          0
  convexproj       :       0.00       0.00          0          0          0          0          0          0          0          0          0          0          0
  disjunctive      :       0.00       0.00          0          0          0          0          0          0          0          0          0          0          0
  eccuts           :       0.00       0.00          0          0          0          0          0          0          0          0          0          0          0
  gauge            :       0.00       0.00          0          0          0          0          0          0          0          0          0          0          0
  gomory           :       0.00       0.00          0          0          0          0          0          0          0          0          0          0          0
  > gomorymi       :          -          -          -          -          -          -          -          0          0          0          0          0          -
  > strongcg       :          -          -          -          -          -          -          -          0          0          0          0          0          -
  impliedbounds    :       0.54       0.00      11157         46          0          0         81         15          0         10         10          0          0
  interlattice     :       0.00       0.00          0          0          0          0          0          0          0          0          0          0          0
  interminor       :       0.00       0.00          0          0          0          0          0          0          0          0          0          0          0
  intersub         :       0.40       0.00         21         21          0          0         19          0         19         19          0         19          0
  intobj           :       0.00       0.00          0          0          0          0          0          0          0          0          0          0          0
  mcf              :       0.00       0.00          1          1          0          0          0          0          0          0          0          0          0
  minor            :       0.02       0.00          0          0          0          0          0          0          0          0          0          0          0
  mixing           :       0.10       0.00      11157         46          0          0          0          0          0          0          0          0          0
  oddcycle         :       0.00       0.00          0          0          0          0          0          0          0          0          0          0          0
  rapidlearning    :       0.01       0.00          0          0          0          0          0          0          0          0          0          0          0
  rlt              :       0.00       0.00         10         10          0          0          0          0          0          0          0          0          0
  zerohalf         :      82.53       0.00       9846         20          0          0      48105    1469466          0     168631     168631          0          0
Cutselectors       :   ExecTime  SetupTime      Calls  RootCalls   Selected     Forced   Filtered  RootSelec   RootForc   RootFilt 
  hybrid           :       1.77       0.00      19505         44     178556          0    1303429        201          0          0
Pricers            :   ExecTime  SetupTime      Calls       Vars
  problem variables:       0.00          -          0          0
Branching Rules    :   ExecTime  SetupTime   BranchLP  BranchExt   BranchPS    Cutoffs    DomReds       Cuts      Conss   Children
  allfullstrong    :       0.00       0.00          0          0          0          0          0          0          0          0
  cloud            :       0.00       0.00          0          0          0          0          0          0          0          0
  distribution     :       0.00       0.00          0          0          0          0          0          0          0          0
  fullstrong       :       0.00       0.00          0          0          0          0          0          0          0          0
  inference        :       0.00       0.00          0          0          0          0          0          0          0          0
  leastinf         :       0.00       0.00          0          0          0          0          0          0          0          0
  lookahead        :       0.00       0.00          0          0          0          0          0          0          0          0
  mostinf          :       0.00       0.00          0          0          0          0          0          0          0          0
  multaggr         :       0.00       0.00          0          0          0          0          0          0          0          0
  nodereopt        :       0.00       0.00          0          0          0          0          0          0          0          0
  pscost           :       0.00       0.00          0          0          0          0          0          0          0          0
  random           :       0.00       0.00          0          0          0          0          0          0          0          0
  relpscost        :      44.62       0.00      97794          0          0          0        165          0         86     195394
  vanillafullstrong:       0.00       0.00          0          0          0          0          0          0          0          0
Primal Heuristics  :   ExecTime  SetupTime      Calls      Found       Best
  LP solutions     :       0.00          -          -          5          5
  relax solutions  :       0.00          -          -          0          0
  pseudo solutions :       0.00          -          -          0          0
  strong branching :       0.03          -          -          0          0
  actconsdiving    :       0.00       0.00          0          0          0
  adaptivediving   :       4.02       0.00         32          0          0
  alns             :      10.30       0.00         19          9          9
  bound            :       0.00       0.00          0          0          0
  clique           :       0.01       0.00          1          0          0
  coefdiving       :       0.00       0.00          0          0          0
  completesol      :       0.00       0.00          0          0          0
  conflictdiving   :      59.67       0.00        490          0          0
  crossover        :       0.65       0.00          6          0          0
  dins             :       0.00       0.00          0          0          0
  distributiondivin:      69.39       0.00        389          0          0
  dps              :       0.00       0.00          0          0          0
  dualval          :       0.00       0.00          0          0          0
  farkasdiving     :       0.00       0.00          0          0          0
  feaspump         :       0.10       0.00          1          1          1
  fixandinfer      :       0.00       0.00          0          0          0
  fracdiving       :      54.89       0.00        460          0          0
  gins             :       0.16       0.00          0          0          0
  guideddiving     :      47.30       0.00        490          0          0
  indicator        :       0.11       0.00          0          0          0
  indicatordiving  :       0.00       0.00          0          0          0
  intdiving        :       0.00       0.00          0          0          0
  intshifting      :       0.55       0.00         62          0          0
  linesearchdiving :      49.58       0.00        490          0          0
  localbranching   :       0.00       0.00          0          0          0
  locks            :       0.01       0.00          1          0          0
  lpface           :       0.09       0.00          0          0          0
  mpec             :     242.42       0.00         11          3          3
  multistart       :       0.00       0.00          0          0          0
  mutation         :       0.00       0.00          0          0          0
  nlpdiving        :      71.85       0.00          2          0          0
  objpscostdiving  :      27.40       0.00         47          2          0
  octane           :       0.00       0.00          0          0          0
  ofins            :       0.14       0.00          0          0          0
  oneopt           :       0.12       0.00         19          0          0
  padm             :       0.00       0.00          0          0          0
  proximity        :       0.00       0.00          0          0          0
  pscostdiving     :      52.21       0.00        427          1          1
  randrounding     :       0.55       0.00      10895          0          0
  rens             :       0.00       0.00          0          0          0
  reoptsols        :       0.00       0.00          0          0          0
  repair           :       0.00       0.00          0          0          0
  rins             :       2.74       0.00         22          0          0
  rootsoldiving    :      29.12       0.00         45          1          0
  rounding         :       1.28       0.00       4749          0          0
  shiftandpropagate:       0.00       0.00          0          0          0
  shifting         :      39.68       0.00      10309          4          3
  simplerounding   :       0.17       0.00          0          0          0
  subnlp           :     143.63       0.00          0          0          0
  trivial          :       0.01       0.00          2          2          2
  trivialnegation  :       0.00       0.00          0          0          0
  trustregion      :       0.00       0.00          0          0          0
  trysol           :       0.11       0.00          0          0          0
  twoopt           :       0.00       0.00          0          0          0
  undercover       :       0.54       0.00          1          1          1
  vbounds          :       0.00       0.00          0          0          0
  veclendiving     :      48.56       0.00        490          0          0
  zeroobj          :       0.00       0.00          0          0          0
  zirounding       :       0.45       0.00       1000          0          0
  other solutions  :          -          -          -          0          -
Diving (single)    :      Calls      Nodes   LP Iters Backtracks  Conflicts   MinDepth   MaxDepth   AvgDepth  RoundSols  NLeafSols  MinSolDpt  MaxSolDpt  AvgSolDpt
  actconsdiving    :          0          -          -          -          -          -          -          -          -          -          -          -          -
  coefdiving       :          0          -          -          -          -          -          -          -          -          -          -          -          -
  conflictdiving   :        490      18770     514010        486      31175         52         82       59.6          0          -          -          -          -
  distributiondivin:        389      13718     557535        414      12203         46         75       55.2          0          -          -          -          -
  farkasdiving     :          0          -          -          -          -          -          -          -          -          -          -          -          -
  fracdiving       :        460      72015     555271        108       2061         48        627      178.4          0          -          -          -          -
  guideddiving     :        490      54393     490200         90       3178         57        361      135.4          0          -          -          -          -
  indicatordiving  :          0          -          -          -          -          -          -          -          -          -          -          -          -
  linesearchdiving :        490      19325     545543        492      27772         44         86       60.8          0          -          -          -          -
  pscostdiving     :        427      17195     569253        442      14527         45         78       61.1          0          1         78         78       78.0
  veclendiving     :        490      20031     518485        483      35190         53         90       61.8          0          -          -          -          -
Diving (adaptive)  :      Calls      Nodes   LP Iters Backtracks  Conflicts   MinDepth   MaxDepth   AvgDepth  RoundSols  NLeafSols  MinSolDpt  MaxSolDpt  AvgSolDpt
  actconsdiving    :          2         31       1041          3         34         51         57       54.0          0          -          -          -          -
  coefdiving       :          9        362      10374          9        601         54         71       59.2          0          -          -          -          -
  conflictdiving   :          0          -          -          -          -          -          -          -          -          -          -          -          -
  distributiondivin:          0          -          -          -          -          -          -          -          -          -          -          -          -
  farkasdiving     :          0          -          -          -          -          -          -          -          -          -          -          -          -
  fracdiving       :          9       1367      11036          0          2         58        265      172.3          0          -          -          -          -
  guideddiving     :          2        225       2639          0          0        118        138      128.0          0          -          -          -          -
  indicatordiving  :          0          -          -          -          -          -          -          -          -          -          -          -          -
  linesearchdiving :          5        168       6085          5        265         51         63       54.4          0          -          -          -          -
  pscostdiving     :          3        129       3850          3         87         60         63       62.0          0          -          -          -          -
  veclendiving     :          2         69       1159          2         91         63         71       67.0          0          -          -          -          -
Neighborhoods      :      Calls  SetupTime  SolveTime SolveNodes       Sols       Best       Exp3  EpsGreedy        UCB TgtFixRate  Opt  Inf Node Stal  Sol  Usr Othr Actv
  rens             :          2       0.15       0.07         71          0          0    0.00000   -1.00000    0.46307      0.850    0    1    0    1    0    0    0    1
  rins             :          2       0.21       0.06         75          0          0    0.00000   -1.00000    0.47345      0.850    0    1    0    1    0    0    0    1
  mutation         :          4       0.25       0.96        961          3          3    0.00000   -1.00000    0.54466      0.747    2    0    0    2    0    0    0    1
  localbranching   :          2       0.17       0.05         73          0          0    0.00000   -1.00000    0.47131      0.850    0    1    0    1    0    0    0    1
  crossover        :          2       0.13       0.02          2          0          0    0.00000   -1.00000    0.54738      0.550    0    2    0    0    0    0    0    1
  proximity        :          1       0.00       0.01          1          0          0    0.00000   -1.00000    0.56823      0.700    0    1    0    0    0    0    0    1
  zeroobjective    :          2       0.17       0.06         67          0          0    0.00000   -1.00000    0.47345      0.850    0    1    0    1    0    0    0    1
  dins             :          4       0.20       7.63       5213          6          6    0.00000   -1.00000    0.51888      0.747    0    0    1    1    2    0    0    1
  trustregion      :          0       0.00       0.00          0          0          0    0.00000   -1.00000    1.00000      0.900    0    0    0    0    0    0    0    0
Expressions        :   #IntEval  IntEvalTi   #RevProp  RevPropTi    DomReds    Cutoffs  #Estimate  EstimTime  Branching  #Simplify SimplifyTi Simplified
  pow              :          0       0.00          0       0.00          0          0          0       0.00          0          0       0.00          0
  prod             :       9900       0.00          0       0.00          0          0          0       0.00          0       6590       0.01          0
  sum              :          8       0.00          2       0.00          0          0          0       0.00          0          3       0.03          2
  var              :       6080       0.00          0       0.00          0          0          0       0.00          0      15139       0.00          0
  varidx           :          0       0.00          0       0.00          0          0          0       0.00          0          0       0.00          0
LP                 :       Time      Calls Iterations  Iter/call   Iter/sec  Time-0-It Calls-0-It    ItLimit
  primal LP        :     130.92      13744          0       0.00       0.00     130.85      13744
  dual LP          :    1646.74     191226   10839172      61.84    6582.20       6.54      15943
  lex dual LP      :       0.00          0          0       0.00          -
  barrier LP       :       0.00          0          0       0.00          -       0.00          0
  resolve instable :       0.00          0          0       0.00          -
  diving/probing LP:     371.40      13441    4144599     308.35   11159.39
  strong branching :      19.94       1683     190368     113.11    9547.04          -          -       1091
    (at root node) :          -         19       4073     214.37          -
  conflict analysis:       7.68       5737      56803       9.90    7396.22
NLP relaxation     :
  solve time       :      71.13 (5 calls)
  convexity        :  nonconvex (49 linear rows, 0 convex ineq., 0 nonconvex ineq., 1640 nonlinear eq. or two-sided ineq.)
NLP Solvers        :  #Problems  ProblemTi    #Solves  SolveTime      #Iter  Time/Iter      #Okay #TimeLimit #IterLimit #LObjLimit #Interrupt  #NumError #EvalError  #OutOfMem #LicenseEr #OtherTerm   #GlobOpt    #LocOpt  #Feasible #LocInfeas #GlobInfea #Unbounded   #Unknown
  ipopt            :         12       6.86         40     316.58       1737       0.18         40          0          0          0          0          0          0          0          0          0          0         24          0         15          0          0          1
B&B Tree           :
  number of runs   :          1
  nodes            :     155703 (97697 internal, 58006 leaves)
  feasible leaves  :          5
  infeas. leaves   :          2
  objective leaves :      57998
  nodes (total)    :     155703 (97697 internal, 58006 leaves)
  nodes left       :      39237
  max depth        :         62
  max depth (total):         62
  backtracks       :      38673 (24.8%)
  early backtracks :          0 (0.0%)
  nodes exc. ref.  :          0 (0.0%)
  delayed cutoffs  :         18
  repropagations   :        107 (277 domain reductions, 0 cutoffs)
  avg switch length:       7.28
  switching time   :     170.25
Estim. Tree Size   :     312316
Estimation Tree    : 195395 nodes (156158 visited, 97697 internal, 58461 leaves, 39237 open), weight: 0.0000 completed 0.1131
Estimations        :      estim      value      trend resolution     smooth
  wbe              : 30902323960499          -          -          -          -
  tree-profile     :         -1          -          -          -          -
  gap              :    1735364    0.68310    0.00003         64    1665899
  tree-weight      :     312316    0.00000    0.00000         64     312080
  leaf-frequency   :    1349651    0.37437    0.00001         64    1090349
  ssg              :    3096659    0.82138   -0.00004         64    2956335
  open-nodes       :     312316 39237.00000  137.48132         64     312080
Root Node          :
  First LP value   : -5.47070707070708e+00
  First LP Iters   :       1636 (10906.67 Iter/sec)
  First LP Time    :       0.15
  Final Dual Bound : -5.26052778037356e+00
  Final Root Iters :       2862
  Root LP Estimate : -1.69992867756162e+00
Solution           :
  Solutions found  :         29 (25 improvements)
  First Solution   : +1.00000000000000e+05   (in run 1, after 0 nodes, 0.04 seconds, depth 0, found by <trivial>)
  Gap First Sol.   :   infinite
  Gap Last Sol.    :      48.43 %
  Primal Bound     : -3.13333333333333e+00   (in run 1, after 75947 nodes, 1427.42 seconds, depth 20, found by <alns>)
  Dual Bound       : -4.58694940695675e+00
  Gap              :      46.39 %
Integrals          :      Total       Avg%
  primal-dual      :  123940.90      34.43
  primal-ref       :          -          - (not evaluated)
  dual-ref         :          -          - (not evaluated)
